webassembly/ejemplos_dzn/9/folder9_json_63.dzn
TERM = { '.', 's(2)', 's(4)', 'in_1', 'local_1', 'in_6', 'in_2', 'in_4', 'in_3', 'in_9', 'in_8', 's(1)', 's(0)', 'in_7', 'in_5', 's(3)', 'in_0'};
null = '.';
s = 9;
n = 15;
ndeps = 5;
max_registers_sz = 4;
NR = 1;
registers = [|'local_1', 's(1)'|];
dependencies = [|'i32.load8_s_0', 'i32.store8_1', |'i32.store8_1', 'i32.store8_2', |'i32.store8_2', 'i32.store8_3', |'i32.store8_3', 'i32.load_7', |'i32.load_7', 'call[function_index(0)]_8'|];
GET_ENUM = { GET1, GET2, GET3, GET4, GET5};
SET_ENUM = { SET1, SET2, SET3, SET4, SET5};
TEE_ENUM = { TEE1, TEE2, TEE3, TEE4, TEE5};
N = 7;
OP = { 'call[function_index(0)]_8', 'i32.load8_s_0', 'i32.store8_1', 'i32.store8_2', 'i32.store8_3', 'i32.load_7', 'i32.sub_0' };
in_ops = [2, 1, 2, 2, 2, 1, 2 ];
out_ops = [2, 1, 0, 0, 0, 1, 1 ];
in1 = ['s(2)', 'in_0', 's(0)', 'in_2', 'in_4', 'in_8', 'in_6' ];
in2 = ['in_9', '.', 'in_1', 'in_3', 'in_5', '.', 'in_7' ];
in3 = ['.', '.', '.', '.', '.', '.', '.' ];
out1 = ['s(4)', 's(0)', '.', '.', '.', 's(2)', 's(1)' ];
out2 = ['s(3)', '.', '.', '.', '.', '.', '.' ];
out3 = ['.', '.', '.', '.', '.', '.', '.' ];
comm = [false, false, false, false, false, false, false ];
gas = [1, 1, 1, 1, 1, 1, 1 ];
sz = [1, 1, 1, 1, 1, 1, 1 ];
stor = [true, false, true, true, true, false, false ];
lb = [ 1, 1, 1, 1, 1, 1, 1 ];
ub = [ 9, 9, 9, 9, 9, 9, 9 ];
startstack = [ 'in_0', 'in_1', 'in_2', 'in_3', 'in_4', 'in_5', 'in_6', 'in_7', 'in_8', 'in_9', null, null, null, null, null ];
endstack = [ 's(4)', 's(3)', null, null, null, null, null, null, null, null, null, null, null, null, null ];
