webassembly/ejemplos_results/9/folder9_json_63.txt
value = 8;
fgas = [1, 1, 1, 1, 1, 1, 1, 1, 0];
fsize = [1, 1, 1, 1, 1, 1, 1, 1, 1];
states = 
[|   in_0,   in_1, in_2, in_3, in_4, in_5, in_6, in_7, in_8, in_9, '.', '.', '.', '.', '.'
 | 's(0)',   in_1, in_2, in_3, in_4, in_5, in_6, in_7, in_8, in_9, '.', '.', '.', '.', '.'
 |   in_6,   in_7, in_4, in_5, in_6, in_7, in_8, in_9,  '.',  '.', '.', '.', '.', '.', '.'
 | 's(1)',   in_4, in_5, in_6, in_7, in_8, in_9,  '.',  '.',  '.', '.', '.', '.', '.', '.'
 |   in_4,   in_5, in_6, in_7, in_8, in_9,  '.',  '.',  '.',  '.', '.', '.', '.', '.', '.'
 |   in_2,   in_3, in_8, in_9,  '.',  '.',  '.',  '.',  '.',  '.', '.', '.', '.', '.', '.'
 |   in_8,   in_9,  '.',  '.',  '.',  '.',  '.',  '.',  '.',  '.', '.', '.', '.', '.', '.'
 | 's(2)',   in_9,  '.',  '.',  '.',  '.',  '.',  '.',  '.',  '.', '.', '.', '.', '.', '.'
 | 's(4)', 's(3)',  '.',  '.',  '.',  '.',  '.',  '.',  '.',  '.', '.', '.', '.', '.', '.'
 | 's(4)', 's(3)',  '.',  '.',  '.',  '.',  '.',  '.',  '.',  '.', '.', '.', '.', '.', '.'
 |];
register_states = 
[| local_1, '.', '.', '.', '.'
 | local_1, '.', '.', '.', '.'
 | local_1, '.', '.', '.', '.'
 | local_1, '.', '.', '.', '.'
 |  's(1)', '.', '.', '.', '.'
 |  's(1)', '.', '.', '.', '.'
 |  's(1)', '.', '.', '.', '.'
 |  's(1)', '.', '.', '.', '.'
 |  's(1)', '.', '.', '.', '.'
 |  's(1)', '.', '.', '.', '.'
 |];
program = [O('i32.load8_s_0'), O('i32.store8_1'), O('i32.sub_0'), S(SET1), O('i32.store8_3'), O('i32.store8_2'), O('i32.load_7'), O('call[function_index(0)]_8'), NOP];
% time elapsed: 0.20 s
----------
==========
% time elapsed: 0.21 s
% [value > 7]
